n_machines = 5;
n_resources = 10;
n_jobs = 17;
horizon = 10131;
LB = 2610;
n_jobs_per_resource = [1, 1, 3, 4, 1, 1, 1, 1, 3, 1];
duration = [347, 554, 244, 854, 915, 488, 820, 669, 633, 811, 725, 291, 995, 973, 728, 15, 69]